SimulationType                MonteCarlo
NumberOfCycles                20000
NumberOfInitializationCycles  5000
PrintEvery                    500

ChargeMethod                  Ewald
CutOff                        12.0
Forcefield                    SensorArrayParams-alcohols
EwaldPrecision                1e-6

Framework 0
FrameworkName HKUST-1_v2_EQeq
UnitCells 1 1 1
HeliumVoidFraction 0.81
UseChargesFromCIFFile yes
ExternalTemperature 298.0
ExternalPressure 1E5

Component 0 MoleculeName              acetone
             MoleculeDefinition         TraPPE-Zhang
             MolFraction                0.0
             TranslationProbability     0.5
             RegrowProbability          0.5
             IdentityChangeProbability  1.0
               NumberOfIdentityChanges  2
               IdentityChangesList	0 1
             SwapProbability            1.0
             CreateNumberOfMolecules    0


Component 1 MoleculeName              CO2
             MoleculeDefinition         TraPPE-Zhang
             MolFraction                0.05
             TranslationProbability     0.5
             RegrowProbability          0.5
             IdentityChangeProbability  1.0
               NumberOfIdentityChanges  2
               IdentityChangesList	0 1
             SwapProbability            1.0
             CreateNumberOfMolecules    0


Component 2 MoleculeName              O2
             MoleculeDefinition         TraPPE-Zhang
             MolFraction                0.19
             TranslationProbability     0.5
             RegrowProbability          0.5
             IdentityChangeProbability  1.0
               NumberOfIdentityChanges  2
               IdentityChangesList	0 1
             SwapProbability            1.0
             CreateNumberOfMolecules    0


Component 3 MoleculeName              N2
             MoleculeDefinition         TraPPE-Zhang
             MolFraction                0.76
             TranslationProbability     0.5
             RegrowProbability          0.5
             IdentityChangeProbability  1.0
               NumberOfIdentityChanges  2
               IdentityChangesList	0 1
             SwapProbability            1.0
             CreateNumberOfMolecules    0

